125 20
1
80 37 63 60 81 49 78 11 0 47 23 81 90 12 56 81 28 35 80 8 16 6 21 34 47 45 42 25 35 75 26 53 87 74 66 77 60 52 49 36 60 95 47 69 34 61 32 47 18 91 91 73 81 12 41 57 70 2 34 80 66 87 71 14 26 39 90 58 45 82 84 52 99 13 9 25 47 64 88 39 85 21 45 44 88 83 68 67 70 35 34 24 61 87 73 20 76 72 58 55 15 82 41 63 27 96 82 89 71 73 96 60 89 79 88 22 34 55 7 37 98 0 75 73 63
499 431 711 668 706 780 767 513 487 831 667 667 926 519 566 809 597 574 789 606
0 15 0 0 0 45 0 0 0 0 0 0 0 0 0 0 0 0 0 0 0 0 0 0 0 0 0 0 0 0 0 0 0 0 0 0 0 0 0 0 0 0 0 0 0 0 0 0 7 0 0 0 0 0 0 0 0 0 92 0 92 0 0 0 0 38 0 0 38 0 0 1 0 0 0 0 0 0 51 66 0 32 74 0 0 5 0 37 0 0 0 16 96 0 41 0 21 0 0 0 0 0 0 0 0 0 0 0 0 0 0 0 0 51 0 0 0 0 0 0 29 0 0 0 0
0 0 0 0 0 0 0 0 0 0 0 0 0 0 0 0 0 0 0 0 0 0 0 43 0 0 0 0 0 0 23 86 0 0 0 0 56 0 0 0 0 0 0 0 0 30 0 0 0 0 0 0 0 46 0 0 72 0 0 0 0 0 0 62 0 0 43 0 0 0 0 0 0 0 0 0 99 0 0 41 0 0 0 0 0 0 0 70 0 0 32 0 0 0 0 0 0 0 0 0 0 0 0 0 0 0 0 1 0 0 0 18 0 0 0 0 0 0 0 0 0 0 0 0 0
0 0 7 0 0 0 43 0 0 0 0 51 0 0 0 0 0 95 71 0 18 0 0 0 0 0 77 63 23 0 0 0 0 0 0 0 0 0 54 0 0 27 0 0 8 0 0 0 0 0 0 0 74 0 0 0 0 0 0 42 46 0 0 0 0 0 0 0 0 0 0 0 0 0 0 0 40 0 0 22 0 86 0 0 0 0 87 0 62 0 0 0 0 0 0 0 0 43 0 98 0 0 0 0 0 0 0 0 0 0 0 3 0 0 0 0 0 0 0 38 0 0 76 0 0
0 0 0 31 0 0 0 32 0 75 0 0 64 0 0 0 0 84 0 0 0 69 0 0 0 0 0 0 0 0 0 0 0 0 0 0 0 0 0 0 29 0 28 0 43 98 0 0 50 0 0 0 0 98 0 0 0 0 0 0 0 0 0 0 0 32 0 0 0 23 0 43 0 0 0 0 86 0 0 0 0 0 0 0 0 0 0 0 12 0 74 0 0 0 53 0 0 0 0 87 0 0 0 0 0 21 0 0 0 0 0 0 0 0 16 0 0 0 0 0 0 0 0 0 0
0 0 0 0 0 0 0 11 0 52 0 0 0 0 0 0 31 59 0 0 0 0 0 0 0 0 27 0 93 0 0 60 0 0 0 78 0 0 0 0 0 0 0 0 51 0 0 75 31 0 0 0 0 0 0 0 0 0 0 0 0 0 0 0 41 0 57 0 0 0 0 64 0 0 60 0 0 0 0 0 0 0 0 0 0 0 0 0 0 0 0 68 69 0 0 0 0 0 0 0 0 0 0 0 0 0 0 82 0 0 0 74 89 0 0 0 0 0 0 0 0 0 0 68 0
0 13 0 0 0 93 0 28 0 0 0 46 0 0 0 0 0 0 0 0 71 0 0 64 0 90 0 92 67 0 0 0 0 0 0 0 0 0 0 0 0 0 0 71 0 94 0 0 0 0 0 54 0 0 0 0 0 0 0 0 0 0 0 0 0 0 0 10 0 0 0 12 82 7 87 0 0 0 0 0 0 0 0 0 0 0 0 26 0 0 0 0 16 0 0 0 0 0 0 0 0 52 0 0 0 0 46 0 0 0 12 0 0 97 0 0 0 0 24 0 47 0 40 59 0
0 0 0 0 33 0 0 0 0 0 0 0 0 3 0 0 0 0 0 0 0 0 0 0 0 79 0 0 58 0 63 73 0 0 0 55 0 0 0 0 53 0 0 0 46 0 0 0 0 0 0 0 1 0 0 0 0 0 0 0 0 0 0 0 0 83 0 0 52 0 0 0 0 0 79 0 0 0 0 0 0 0 0 98 87 85 0 0 0 0 87 0 0 0 0 0 0 0 0 0 0 0 0 0 0 0 0 0 0 64 0 0 0 0 0 0 30 0 0 45 0 0 99 0 97
0 0 0 0 0 0 0 0 0 0 0 0 0 0 0 0 61 0 0 0 0 0 0 16 0 0 0 0 0 0 0 0 0 35 32 0 51 0 0 0 0 0 0 0 0 38 0 44 0 0 0 0 0 93 0 24 0 0 0 94 49 0 0 0 0 0 7 0 0 0 0 0 0 0 0 0 66 15 0 0 0 44 0 61 0 0 0 0 0 0 0 0 0 0 14 0 46 0 0 0 0 0 0 0 0 0 31 0 0 0 0 0 19 15 0 0 35 0 0 0 0 0 0 0 0
0 0 0 0 0 0 0 0 0 0 0 0 0 0 0 0 0 0 0 0 0 0 0 0 0 0 0 0 0 0 0 0 93 79 0 0 5 0 0 0 0 0 29 0 0 54 42 0 0 0 0 0 0 0 50 0 0 0 39 0 0 0 0 0 15 0 0 0 0 0 0 0 0 0 0 0 37 0 0 0 0 0 0 0 0 0 0 0 0 0 0 0 0 0 64 0 0 0 23 0 0 0 0 0 0 0 0 73 0 0 0 0 0 0 83 0 0 0 0 0 22 0 0 49 88
0 0 0 0 0 79 65 0 0 0 0 0 85 44 0 0 0 0 0 0 0 0 0 93 20 0 0 0 0 0 59 0 0 0 0 0 0 0 0 0 0 0 0 77 7 0 0 26 0 96 0 0 73 0 0 0 0 0 0 0 0 0 0 0 0 2 0 0 0 93 0 0 82 11 0 0 0 0 0 0 0 0 0 0 84 0 0 0 0 0 0 0 74 93 0 0 0 63 0 0 0 0 0 18 0 0 0 0 0 74 0 0 0 49 0 86 0 0 0 0 0 0 0 0 0
0 0 0 4 0 0 0 84 0 0 0 0 0 0 52 0 0 0 0 0 61 0 85 0 0 0 0 0 0 0 0 0 0 0 86 0 0 0 92 0 0 0 99 0 0 17 0 0 0 0 0 0 0 0 0 91 0 26 0 0 0 0 0 0 0 0 0 63 0 0 0 0 0 0 0 0 59 0 0 35 0 61 0 0 0 0 0 0 0 0 0 25 0 0 98 0 0 0 0 0 0 0 0 0 0 0 0 0 0 0 3 81 0 0 0 0 0 0 0 0 0 0 36 0 0
0 0 0 3 0 0 0 0 0 0 0 0 0 0 0 0 0 0 0 97 0 60 0 0 0 0 0 0 0 71 7 0 0 0 69 0 0 0 0 0 12 0 0 95 0 0 0 0 44 0 0 12 0 0 0 29 0 0 0 46 0 0 97 0 0 73 0 0 0 0 87 39 0 0 43 0 0 0 29 0 0 0 0 0 0 0 0 0 4 0 0 0 0 40 0 0 0 0 0 0 0 0 0 0 50 0 0 0 42 0 0 0 25 0 0 97 0 0 0 0 0 0 0 0 0
0 0 22 0 0 64 0 38 0 0 0 32 69 79 0 33 0 0 0 0 12 0 0 0 0 0 80 0 0 0 0 0 78 0 0 0 12 0 0 0 0 63 0 0 0 0 0 0 0 0 0 0 24 3 0 0 0 0 0 91 0 0 0 0 0 38 98 0 62 0 0 0 0 42 20 0 0 0 2 0 0 92 0 0 52 9 0 97 0 0 0 0 0 0 0 0 0 0 0 0 47 0 95 98 80 0 0 0 52 0 0 0 0 0 0 0 0 0 0 0 0 32 0 0 46
0 0 0 0 0 0 0 90 0 0 9 0 63 0 0 13 66 0 99 0 34 0 0 0 0 0 0 0 0 0 0 33 0 0 0 0 0 58 0 0 0 0 0 58 0 0 0 0 0 0 0 46 0 0 0 0 0 0 0 0 0 0 30 0 0 0 0 0 0 85 0 0 0 6 2 0 0 0 0 0 0 0 0 0 88 0 0 0 0 0 0 0 0 0 0 0 0 0 0 0 0 72 0 0 0 0 0 0 0 0 0 0 0 0 0 0 0 0 0 0 68 0 0 0 0
0 0 0 0 0 0 0 0 83 0 79 0 0 0 0 0 57 0 0 0 0 0 57 0 0 0 0 0 0 0 0 0 0 0 0 7 2 0 0 52 66 0 0 0 0 0 0 0 0 0 0 0 0 0 0 0 0 60 50 0 23 0 0 0 0 0 0 0 0 0 0 14 0 2 0 0 0 0 0 58 0 0 0 0 86 0 0 0 38 0 0 24 0 27 0 95 0 0 0 0 0 0 0 0 0 0 0 0 0 0 7 0 85 0 0 0 0 0 0 39 0 0 0 0 0
7 0 0 0 62 0 0 16 0 0 0 81 0 0 0 0 0 0 0 0 0 0 0 24 0 99 0 0 0 0 0 0 0 0 75 21 0 0 0 82 0 11 0 0 0 79 0 0 0 0 0 0 0 15 85 0 0 27 93 0 0 75 0 61 20 0 0 0 0 0 0 0 5 0 2 0 0 0 0 0 4 75 0 0 0 0 0 0 0 88 0 59 0 0 0 0 0 0 0 0 0 0 87 0 0 0 0 0 0 82 0 0 0 0 0 0 65 0 0 0 0 0 0 0 0
0 82 0 0 91 0 0 0 0 0 0 0 0 0 57 41 0 27 55 0 0 0 0 0 0 0 0 0 0 0 0 0 43 0 45 75 0 0 0 0 0 0 40 0 0 0 0 24 0 0 0 0 0 32 14 0 0 0 0 0 0 0 0 0 0 0 0 0 0 0 0 0 0 0 0 0 0 0 0 0 82 0 0 0 0 0 0 13 0 0 0 0 0 24 0 0 0 0 0 78 0 0 0 0 0 0 0 0 45 0 77 0 0 0 0 0 0 0 93 0 0 0 0 0 0
0 0 0 39 0 0 0 0 0 67 0 0 0 0 0 86 65 7 2 0 20 0 0 0 35 0 0 0 0 0 95 25 89 29 0 67 0 0 0 0 0 23 0 0 0 0 0 0 0 0 0 0 0 0 0 0 32 0 0 0 0 0 0 83 0 0 24 0 0 0 0 0 0 0 0 0 0 0 0 0 0 0 0 0 0 53 0 27 0 0 0 0 0 0 0 0 0 0 0 0 0 0 0 2 0 0 0 0 0 29 0 0 33 41 0 0 0 0 0 0 48 0 0 0 0
5 0 0 0 0 0 0 0 0 0 0 0 0 0 0 0 0 0 52 0 0 0 0 0 0 0 0 0 0 0 0 0 82 0 0 0 52 0 0 0 79 62 0 67 0 0 0 0 0 76 72 0 0 0 0 0 0 0 0 0 0 0 70 0 0 0 0 0 0 0 0 0 0 79 0 0 81 0 0 42 0 78 0 0 0 0 22 0 0 41 0 80 0 0 98 0 0 0 0 0 0 0 0 0 0 0 0 0 33 0 60 0 15 97 0 0 0 0 0 0 0 0 0 0 75
0 0 0 0 0 0 0 0 0 0 0 0 0 0 0 14 0 0 29 0 0 0 0 0 0 54 77 0 0 0 0 0 0 0 0 0 0 0 0 0 0 0 0 37 0 0 61 0 0 45 82 0 0 0 96 0 0 0 0 0 0 0 0 0 0 0 0 0 0 0 0 0 0 0 7 0 0 0 0 0 91 0 0 81 0 0 0 0 0 0 0 0 0 90 0 0 90 0 37 0 0 0 0 0 0 0 0 0 0 0 90 0 0 0 0 0 0 0 0 0 0 0 0 0 76
0 10 0 0 0 43 0 0 0 0 0 0 0 0 0 0 0 0 0 0 0 0 0 0 0 0 0 0 0 0 0 0 0 0 0 0 0 0 0 0 0 0 0 0 0 0 0 0 5 0 0 0 0 0 0 0 0 0 66 0 86 0 0 0 0 35 0 0 14 0 0 0 0 0 0 0 0 0 34 0 0 21 38 0 0 2 0 17 0 0 0 4 48 0 3 0 19 0 0 0 0 0 0 0 0 0 0 0 0 0 0 0 0 36 0 0 0 0 0 0 19 0 0 0 0
0 0 0 0 0 0 0 0 0 0 0 0 0 0 0 0 0 0 0 0 0 0 0 3 0 0 0 0 0 0 16 63 0 0 0 0 22 0 0 0 0 0 0 0 0 21 0 0 0 0 0 0 0 33 0 0 31 0 0 0 0 0 0 4 0 0 38 0 0 0 0 0 0 0 0 0 71 0 0 37 0 0 0 0 0 0 0 69 0 0 6 0 0 0 0 0 0 0 0 0 0 0 0 0 0 0 0 0 0 0 0 12 0 0 0 0 0 0 0 0 0 0 0 0 0
0 0 4 0 0 0 36 0 0 0 0 32 0 0 0 0 0 46 40 0 17 0 0 0 0 0 61 35 3 0 0 0 0 0 0 0 0 0 31 0 0 16 0 0 6 0 0 0 0 0 0 0 20 0 0 0 0 0 0 6 43 0 0 0 0 0 0 0 0 0 0 0 0 0 0 0 10 0 0 3 0 36 0 0 0 0 73 0 38 0 0 0 0 0 0 0 0 7 0 56 0 0 0 0 0 0 0 0 0 0 0 1 0 0 0 0 0 0 0 18 0 0 47 0 0
0 0 0 0 0 0 0 1 0 21 0 0 21 0 0 0 0 39 0 0 0 60 0 0 0 0 0 0 0 0 0 0 0 0 0 0 0 0 0 0 2 0 23 0 40 77 0 0 43 0 0 0 0 83 0 0 0 0 0 0 0 0 0 0 0 27 0 0 0 2 0 14 0 0 0 0 85 0 0 0 0 0 0 0 0 0 0 0 9 0 50 0 0 0 22 0 0 0 0 37 0 0 0 0 0 13 0 0 0 0 0 0 0 0 13 0 0 0 0 0 0 0 0 0 0
0 0 0 0 0 0 0 4 0 46 0 0 0 0 0 0 6 43 0 0 0 0 0 0 0 0 25 0 54 0 0 27 0 0 0 29 0 0 0 0 0 0 0 0 48 0 0 15 9 0 0 0 0 0 0 0 0 0 0 0 0 0 0 0 29 0 51 0 0 0 0 49 0 0 24 0 0 0 0 0 0 0 0 0 0 0 0 0 0 0 0 64 13 0 0 0 0 0 0 0 0 0 0 0 0 0 0 52 0 0 0 59 34 0 0 0 0 0 0 0 0 0 0 3 0
0 0 0 0 0 80 0 25 0 0 0 0 0 0 0 0 0 0 0 0 9 0 0 26 0 38 0 17 13 0 0 0 0 0 0 0 0 0 0 0 0 0 0 42 0 52 0 0 0 0 0 9 0 0 0 0 0 0 0 0 0 0 0 0 0 0 0 6 0 0 0 9 57 1 51 0 0 0 0 0 0 0 0 0 0 0 0 5 0 0 0 0 5 0 0 0 0 0 0 0 0 47 0 0 0 0 25 0 0 0 5 0 0 29 0 0 0 0 12 0 20 0 24 31 0
0 0 0 0 1 0 0 0 0 0 0 0 0 2 0 0 0 0 0 0 0 0 0 0 0 54 0 0 10 0 47 31 0 0 0 5 0 0 0 0 31 0 0 0 10 0 0 0 0 0 0 0 0 0 0 0 0 0 0 0 0 0 0 0 0 40 0 0 37 0 0 0 0 0 25 0 0 0 0 0 0 0 0 72 22 49 0 0 0 0 55 0 0 0 0 0 0 0 0 0 0 0 0 0 0 0 0 0 0 58 0 0 0 0 0 0 24 0 0 3 0 0 28 0 24
0 0 0 0 0 0 0 0 0 0 0 0 0 0 0 0 20 0 0 0 0 0 0 1 0 0 0 0 0 0 0 0 0 23 9 0 11 0 0 0 0 0 0 0 0 21 0 23 0 0 0 0 0 64 0 17 0 0 0 78 23 0 0 0 0 0 1 0 0 0 0 0 0 0 0 0 0 3 0 0 0 42 0 34 0 0 0 0 0 0 0 0 0 0 11 0 42 0 0 0 0 0 0 0 0 0 2 0 0 0 0 0 11 4 0 0 28 0 0 0 0 0 0 0 0
0 0 0 0 0 0 0 0 0 0 0 0 0 0 0 0 0 0 0 0 0 0 0 0 0 0 0 0 0 0 0 0 6 70 0 0 2 0 0 0 0 0 12 0 0 26 4 0 0 0 0 0 0 0 0 0 0 0 34 0 0 0 0 0 12 0 0 0 0 0 0 0 0 0 0 0 8 0 0 0 0 0 0 0 0 0 0 0 0 0 0 0 0 0 23 0 0 0 15 0 0 0 0 0 0 0 0 11 0 0 0 0 0 0 53 0 0 0 0 0 15 0 0 47 60
0 0 0 0 0 29 50 0 0 0 0 0 69 38 0 0 0 0 0 0 0 0 0 83 10 0 0 0 0 0 31 0 0 0 0 0 0 0 0 0 0 0 0 47 5 0 0 11 0 35 0 0 51 0 0 0 0 0 0 0 0 0 0 0 0 0 0 0 0 73 0 0 12 3 0 0 0 0 0 0 0 0 0 0 16 0 0 0 0 0 0 0 9 84 0 0 0 49 0 0 0 0 0 7 0 0 0 0 0 48 0 0 0 21 0 47 0 0 0 0 0 0 0 0 0
0 0 0 3 0 0 0 56 0 0 0 0 0 0 51 0 0 0 0 0 3 0 3 0 0 0 0 0 0 0 0 0 0 0 50 0 0 0 53 0 0 0 87 0 0 15 0 0 0 0 0 0 0 0 0 79 0 12 0 0 0 0 0 0 0 0 0 28 0 0 0 0 0 0 0 0 43 0 0 16 0 18 0 0 0 0 0 0 0 0 0 18 0 0 2 0 0 0 0 0 0 0 0 0 0 0 0 0 0 0 2 47 0 0 0 0 0 0 0 0 0 0 1 0 0
0 0 0 1 0 0 0 0 0 0 0 0 0 0 0 0 0 0 0 56 0 41 0 0 0 0 0 0 0 44 4 0 0 0 33 0 0 0 0 0 6 0 0 54 0 0 0 0 15 0 0 11 0 0 0 5 0 0 0 5 0 0 64 0 0 34 0 0 0 0 42 23 0 0 40 0 0 0 26 0 0 0 0 0 0 0 0 0 2 0 0 0 0 24 0 0 0 0 0 0 0 0 0 0 16 0 0 0 2 0 0 0 0 0 0 73 0 0 0 0 0 0 0 0 0
0 0 5 0 0 63 0 31 0 0 0 17 31 31 0 14 0 0 0 0 2 0 0 0 0 0 47 0 0 0 0 0 35 0 0 0 3 0 0 0 0 50 0 0 0 0 0 0 0 0 0 0 0 0 0 0 0 0 0 41 0 0 0 0 0 31 16 0 53 0 0 0 0 19 11 0 0 0 1 0 0 38 0 0 23 0 0 56 0 0 0 0 0 0 0 0 0 0 0 0 9 0 64 83 26 0 0 0 2 0 0 0 0 0 0 0 0 0 0 0 0 6 0 0 21
0 0 0 0 0 0 0 30 0 0 6 0 53 0 0 9 31 0 30 0 15 0 0 0 0 0 0 0 0 0 0 21 0 0 0 0 0 28 0 0 0 0 0 47 0 0 0 0 0 0 0 9 0 0 0 0 0 0 0 0 0 0 12 0 0 0 0 0 0 4 0 0 0 2 1 0 0 0 0 0 0 0 0 0 18 0 0 0 0 0 0 0 0 0 0 0 0 0 0 0 0 59 0 0 0 0 0 0 0 0 0 0 0 0 0 0 0 0 0 0 29 0 0 0 0
0 0 0 0 0 0 0 0 77 0 9 0 0 0 0 0 23 0 0 0 0 0 26 0 0 0 0 0 0 0 0 0 0 0 0 4 0 0 0 27 14 0 0 0 0 0 0 0 0 0 0 0 0 0 0 0 0 23 47 0 8 0 0 0 0 0 0 0 0 0 0 5 0 1 0 0 0 0 0 25 0 0 0 0 30 0 0 0 5 0 0 1 0 10 0 19 0 0 0 0 0 0 0 0 0 0 0 0 0 0 5 0 37 0 0 0 0 0 0 25 0 0 0 0 0
5 0 0 0 15 0 0 12 0 0 0 64 0 0 0 0 0 0 0 0 0 0 0 0 0 69 0 0 0 0 0 0 0 0 50 15 0 0 0 18 0 5 0 0 0 68 0 0 0 0 0 0 0 3 66 0 0 11 74 0 0 69 0 55 1 0 0 0 0 0 0 0 1 0 0 0 0 0 0 0 1 50 0 0 0 0 0 0 0 48 0 54 0 0 0 0 0 0 0 0 0 0 4 0 0 0 0 0 0 50 0 0 0 0 0 0 56 0 0 0 0 0 0 0 0
0 78 0 0 38 0 0 0 0 0 0 0 0 0 10 30 0 21 24 0 0 0 0 0 0 0 0 0 0 0 0 0 39 0 0 38 0 0 0 0 0 0 29 0 0 0 0 21 0 0 0 0 0 31 6 0 0 0 0 0 0 0 0 0 0 0 0 0 0 0 0 0 0 0 0 0 0 0 0 0 73 0 0 0 0 0 0 7 0 0 0 0 0 15 0 0 0 0 0 49 0 0 0 0 0 0 0 0 6 0 32 0 0 0 0 0 0 0 29 0 0 0 0 0 0
0 0 0 29 0 0 0 0 0 19 0 0 0 0 0 28 41 4 0 0 14 0 0 0 25 0 0 0 0 0 10 5 15 3 0 46 0 0 0 0 0 12 0 0 0 0 0 0 0 0 0 0 0 0 0 0 19 0 0 0 0 0 0 74 0 0 15 0 0 0 0 0 0 0 0 0 0 0 0 0 0 0 0 0 0 44 0 2 0 0 0 0 0 0 0 0 0 0 0 0 0 0 0 0 0 0 0 0 0 19 0 0 12 22 0 0 0 0 0 0 13 0 0 0 0
1 0 0 0 0 0 0 0 0 0 0 0 0 0 0 0 0 0 31 0 0 0 0 0 0 0 0 0 0 0 0 0 53 0 0 0 23 0 0 0 78 43 0 2 0 0 0 0 0 69 22 0 0 0 0 0 0 0 0 0 0 0 42 0 0 0 0 0 0 0 0 0 0 2 0 0 20 0 0 41 0 39 0 0 0 0 5 0 0 26 0 21 0 0 3 0 0 0 0 0 0 0 0 0 0 0 0 0 28 0 9 0 6 1 0 0 0 0 0 0 0 0 0 0 28
0 0 0 0 0 0 0 0 0 0 0 0 0 0 0 6 0 0 28 0 0 0 0 0 0 44 67 0 0 0 0 0 0 0 0 0 0 0 0 0 0 0 0 32 0 0 29 0 0 5 12 0 0 0 90 0 0 0 0 0 0 0 0 0 0 0 0 0 0 0 0 0 0 0 2 0 0 0 0 0 16 0 0 23 0 0 0 0 0 0 0 0 0 15 0 0 11 0 4 0 0 0 0 0 0 0 0 0 0 0 71 0 0 0 0 0 0 0 0 0 0 0 0 0 24
